c Sudoku solution
p cnf 729 0
126 0
165 0
181 0
228 0
247 0
253 0
279 0
313 0
337 0
439 0
463 0
498 0
633 0
658 0
661 0
677 0
197 0
173 0
148 0
729 0
119 0
846 0
852 0
154 0
132 0
917 0
943 0
823 0
951 0
341 0
964 0
745 0
757 0
768 0
869 0
887 0
427 0
521 0
471 0
567 0
359 0
972 0
712 0
925 0
622 0
324 0
996 0
774 0
783 0
791 0
895 0
878 0
989 0
736 0
938 0
518 0
388 0
593 0
549 0
442 0
644 0
582 0
534 0
484 0
814 0
831 0
211 0
235 0
286 0
294 0
392 0
375 0
262 0
366 0
576 0
555 0
456 0
415 0
616 0
685 0
699 0
